; benchmark generated from python API
(set-info :status unknown)
(declare-fun x_month () Int)
(declare-fun x_day () Int)
(declare-fun x_year () Int)
(assert
 (>= x_month 1))
(assert
 (<= x_month 12))
(assert
 (>= x_day 1))
(assert
 (<= x_day 31))
(assert
 (let (($x650 (<= x_day 28)))
 (let (($x326 (<= x_day 29)))
 (let (($x691 (= (mod x_year 400) 0)))
 (let (($x667 (= (mod x_year 4) 0)))
 (let (($x332 (ite (or (and $x667 (and (distinct (mod x_year 100) 0) true)) $x691) $x326 $x650)))
 (let (($x319 (= x_month 2)))
 (ite $x319 $x332 true))))))))
(assert
 (let (($x320 (<= x_day 30)))
 (let (($x628 (or (= x_month 4) (= x_month 6) (= x_month 9) (= x_month 11))))
 (ite $x628 $x320 true))))
(assert
 (let (($x614 (= x_year 2023)))
 (let (($x624 (and $x614 (or (> x_month 1) (and (= x_month 1) (>= x_day 31))))))
 (or (> x_year 2023) $x624))))
(assert
 (let ((?x238 (+ (mod (- (+ x_month (+ (* 0 12) 1)) 1) 12) 1)))
(let ((?x592 (ite (or (= ?x238 4) (= ?x238 6) (= ?x238 9) (= ?x238 11)) 30 31)))
(let ((?x730 (+ 0 (div (- (+ x_month (+ (* 0 12) 1)) 1) 12))))
(let ((?x505 (+ x_year ?x730)))
(let (($x822 (or (and (= (mod ?x505 4) 0) (and (distinct (mod ?x505 100) 0) true)) (= (mod ?x505 400) 0))))
(let ((?x280 (ite (= ?x238 2) (ite $x822 29 28) ?x592)))
(let ((?x325 (ite (< x_day 1) 1 (ite (> x_day ?x280) ?x280 x_day))))
(let ((?x625 (ite (< ?x325 1) 1 (ite (> ?x325 ?x280) ?x280 ?x325))))
(let ((?x647 (ite (= 2 ?x238) (ite $x822 31 31) (ite (= 1 ?x238) (ite $x822 0 0) 0))))
(let ((?x627 (ite (= 4 ?x238) (ite $x822 91 90) (ite (= 3 ?x238) (ite $x822 60 59) ?x647))))
(let ((?x826 (ite (= 6 ?x238) (ite $x822 152 151) (ite (= 5 ?x238) (ite $x822 121 120) ?x627))))
(let ((?x855 (ite (= 8 ?x238) (ite $x822 213 212) (ite (= 7 ?x238) (ite $x822 182 181) ?x826))))
(let ((?x556 (ite (= 10 ?x238) (ite $x822 274 273) (ite (= 9 ?x238) (ite $x822 244 243) ?x855))))
(let ((?x423 (ite (= 12 ?x238) (ite $x822 335 334) (ite (= 11 ?x238) (ite $x822 305 304) ?x556))))
(let ((?x316 (- (+ (* 365 (- ?x505 1)) (div (- ?x505 1) 4)) (div (- ?x505 1) 100))))
(let ((?x792 (- (+ (+ (+ ?x316 (div (- ?x505 1) 400)) ?x423) (- ?x625 1)) 730179)))
(let ((?x403 (+ (+ ?x792 0) 730179)))
(let ((?x841 (mod ?x403 146097)))
(let ((?x212 (div ?x841 36524)))
(let ((?x561 (ite (<= 4 ?x212) 3 ?x212)))
(let ((?x568 (- ?x841 (* ?x561 36524))))
(let ((?x636 (mod ?x568 1461)))
(let ((?x284 (div ?x636 365)))
(let ((?x812 (ite (<= 4 ?x284) 3 ?x284)))
(let ((?x434 (+ (+ (* (div ?x403 146097) 400) (* ?x561 100)) (* (div ?x568 1461) 4))))
(let ((?x794 (+ (+ ?x434 ?x812) 1)))
(let (($x547 (or (and (= (mod ?x794 4) 0) (and (distinct (mod ?x794 100) 0) true)) (= (mod ?x794 400) 0))))
(let ((?x885 (- ?x636 (* ?x812 365))))
(let ((?x768 (ite $x547 31 31)))
(let (($x867 (>= ?x885 ?x768)))
(let ((?x477 (ite $x867 (+ (- ?x885 ?x768) 1) (+ (- ?x885 (ite $x547 0 0)) 1))))
(let ((?x299 (ite $x547 60 59)))
(let (($x386 (>= ?x885 ?x299)))
(let ((?x555 (ite $x547 91 90)))
(let (($x302 (>= ?x885 ?x555)))
(let ((?x512 (ite $x302 (+ (- ?x885 ?x555) 1) (ite $x386 (+ (- ?x885 ?x299) 1) ?x477))))
(let ((?x849 (ite $x547 121 120)))
(let (($x461 (>= ?x885 ?x849)))
(let ((?x769 (ite $x547 152 151)))
(let (($x546 (>= ?x885 ?x769)))
(let ((?x425 (ite $x546 (+ (- ?x885 ?x769) 1) (ite $x461 (+ (- ?x885 ?x849) 1) ?x512))))
(let ((?x766 (ite $x547 182 181)))
(let (($x818 (>= ?x885 ?x766)))
(let ((?x380 (ite $x547 213 212)))
(let (($x228 (>= ?x885 ?x380)))
(let ((?x1189 (ite $x228 (+ (- ?x885 ?x380) 1) (ite $x818 (+ (- ?x885 ?x766) 1) ?x425))))
(let ((?x368 (ite $x547 244 243)))
(let (($x850 (>= ?x885 ?x368)))
(let ((?x205 (ite $x547 274 273)))
(let (($x479 (>= ?x885 ?x205)))
(let ((?x654 (ite $x479 (+ (- ?x885 ?x205) 1) (ite $x850 (+ (- ?x885 ?x368) 1) ?x1189))))
(let ((?x250 (ite $x547 305 304)))
(let (($x574 (>= ?x885 ?x250)))
(let ((?x866 (ite $x547 335 334)))
(let (($x217 (>= ?x885 ?x866)))
(let ((?x681 (ite $x217 (+ (- ?x885 ?x866) 1) (ite $x574 (+ (- ?x885 ?x250) 1) ?x654))))
(let (($x337 (= 0 0)))
(let ((?x772 (ite $x461 5 (ite $x302 4 (ite $x386 3 (ite $x867 2 1))))))
(let ((?x847 (ite $x850 9 (ite $x228 8 (ite $x818 7 (ite $x546 6 ?x772))))))
(let ((?x655 (ite $x337 ?x238 (ite $x217 12 (ite $x574 11 (ite $x479 10 ?x847))))))
(let (($x489 (or (< ?x655 3) (and (= ?x655 3) (<= (ite $x337 ?x625 ?x681) 1)))))
(or (< (ite $x337 ?x505 ?x794) 2023) (and (= (ite $x337 ?x505 ?x794) 2023) $x489))))))))))))))))))))))))))))))))))))))))))))))))))))))))))))))))
(check-sat)
